c This is UnifRandomKSATGenerator
c uniform random 3-SAT generated instance with: 
c clause length: 3 
c number variables: 10 
c number clauses: 43 
c clause to variable ratio: 4.27 
c random number generator name: SHA1PRNG 
c random number generator provider: SUN 
c random number generator seed: 4999857140495733671 
p cnf 10 43
-10 4 -7 0
2 -7 -8 0
1 3 5 0
-3 -6 7 0
4 5 6 0
10 4 5 0
8 -10 6 0
-10 2 4 0
-1 -9 -4 0
4 -7 6 0
8 -10 2 0
8 9 -5 0
9 -5 4 0
10 2 -6 0
-2 10 6 0
-10 -6 7 0
8 -4 -5 0
8 -10 7 0
1 2 -7 0
1 3 -7 0
-9 -2 -7 0
-10 3 -5 0
1 -3 -5 0
-2 10 7 0
1 -5 7 0
1 5 6 0
-9 -7 6 0
1 10 -5 0
-3 10 -7 0
-1 9 -4 0
-1 -10 -4 0
-10 -5 -8 0
2 -3 4 0
2 -3 6 0
-3 10 6 0
-9 -2 10 0
-1 2 7 0
1 2 5 0
1 10 6 0
9 2 4 0
10 5 6 0
1 -10 2 0
-9 8 7 0
